523,188
491,216
396,314
751,850
1135,637
1020,652
861,406
1001,243
947,213
893,194
681,496
618,469
536,511
681,946
436,887
387,555
441,284
385,360
317,670
765,939
838,891
918,443
829,554
850,529
802,494
829,429
593,285
718,520
829,554
718,520
586,219
838,-79
782,93
893,194
838,-79
681,-44
782,93
829,429
764,662
751,850
838,891
765,939
524,891
618,469
567,369
317,670
387,555
504,378
521,325
593,285
586,219
491,216
